NAME 
OBJSENSE MAX
ROWS
 N  OBJ
 L  packing[0]
 L  packing[1]
 L  packing[2]
 L  packing[3]
 L  packing[4]
 L  packing[5]
 L  packing[6]
 L  packing[7]
 L  packing[8]
 L  packing[9]
 L  packing[10]
 L  packing[11]
 L  packing[12]
 L  packing[13]
 L  packing[14]
 L  packing[15]
 L  packing[16]
 L  packing[17]
 L  packing[18]
 L  packing[19]
 L  packing[20]
 L  packing[21]
 L  packing[22]
 L  packing[23]
 L  packing[24]
 L  packing[25]
 L  packing[26]
 L  packing[27]
 L  packing[28]
 L  packing[29]
 L  packing[30]
 L  packing[31]
 L  packing[32]
 L  packing[33]
 L  packing[34]
 L  packing[35]
 L  packing[36]
 L  packing[37]
 L  packing[38]
 L  packing[39]
 L  packing[40]
 L  packing[41]
 L  packing[42]
 L  packing[43]
 L  packing[44]
 L  packing[45]
 L  packing[46]
 L  packing[47]
 L  packing[48]
 L  packing[49]
 L  R50     
COLUMNS
    MARKER    'MARKER'                 'INTORG'
    x[1]      OBJ       105
    x[1]      packing[0]  185
    x[1]      packing[1]  59
    x[1]      packing[3]  46
    x[1]      packing[4]  151
    x[1]      packing[5]  180
    x[1]      packing[6]  67
    x[1]      packing[7]  65
    x[1]      packing[8]  13
    x[1]      packing[9]  88
    x[1]      packing[10]  126
    x[1]      packing[12]  99
    x[1]      packing[13]  166
    x[1]      packing[18]  149
    x[1]      packing[19]  103
    x[1]      packing[20]  120
    x[1]      packing[21]  136
    x[1]      packing[22]  177
    x[1]      packing[24]  152
    x[1]      packing[25]  129
    x[1]      packing[26]  173
    x[1]      packing[27]  81
    x[1]      packing[28]  1
    x[1]      packing[29]  131
    x[1]      packing[31]  169
    x[1]      packing[32]  66
    x[1]      packing[33]  129
    x[1]      packing[34]  105
    x[1]      packing[36]  178
    x[1]      packing[37]  145
    x[1]      packing[38]  36
    x[1]      packing[40]  6
    x[1]      packing[42]  125
    x[1]      packing[44]  192
    x[1]      packing[45]  129
    x[1]      packing[46]  42
    x[1]      packing[47]  194
    x[1]      packing[48]  180
    x[1]      packing[49]  168
    x[2]      OBJ       56
    x[2]      packing[0]  23
    x[2]      packing[1]  41
    x[2]      packing[2]  199
    x[2]      packing[3]  120
    x[2]      packing[4]  60
    x[2]      packing[5]  164
    x[2]      packing[6]  172
    x[2]      packing[7]  163
    x[2]      packing[8]  15
    x[2]      packing[9]  159
    x[2]      packing[10]  147
    x[2]      packing[11]  190
    x[2]      packing[12]  34
    x[2]      packing[13]  66
    x[2]      packing[14]  113
    x[2]      packing[16]  142
    x[2]      packing[18]  1
    x[2]      packing[19]  27
    x[2]      packing[20]  163
    x[2]      packing[21]  180
    x[2]      packing[22]  85
    x[2]      packing[23]  41
    x[2]      packing[24]  177
    x[2]      packing[25]  77
    x[2]      packing[27]  190
    x[2]      packing[28]  139
    x[2]      packing[29]  63
    x[2]      packing[30]  126
    x[2]      packing[31]  153
    x[2]      packing[32]  138
    x[2]      packing[33]  54
    x[2]      packing[34]  75
    x[2]      packing[35]  122
    x[2]      packing[36]  3
    x[2]      packing[37]  101
    x[2]      packing[38]  34
    x[2]      packing[39]  84
    x[2]      packing[40]  116
    x[2]      packing[43]  187
    x[2]      packing[44]  79
    x[2]      packing[45]  199
    x[2]      packing[47]  31
    x[2]      packing[48]  186
    x[3]      OBJ       38
    x[3]      packing[0]  74
    x[3]      packing[1]  36
    x[3]      packing[2]  111
    x[3]      packing[3]  157
    x[3]      packing[5]  26
    x[3]      packing[6]  167
    x[3]      packing[7]  14
    x[3]      packing[8]  10
    x[3]      packing[9]  56
    x[3]      packing[10]  176
    x[3]      packing[11]  78
    x[3]      packing[12]  4
    x[3]      packing[14]  105
    x[3]      packing[15]  6
    x[3]      packing[16]  83
    x[3]      packing[17]  71
    x[3]      packing[18]  66
    x[3]      packing[19]  33
    x[3]      packing[20]  16
    x[3]      packing[21]  131
    x[3]      packing[22]  169
    x[3]      packing[24]  91
    x[3]      packing[26]  38
    x[3]      packing[27]  192
    x[3]      packing[29]  101
    x[3]      packing[31]  40
    x[3]      packing[32]  61
    x[3]      packing[34]  51
    x[3]      packing[36]  134
    x[3]      packing[37]  35
    x[3]      packing[39]  130
    x[3]      packing[40]  65
    x[3]      packing[42]  9
    x[3]      packing[43]  148
    x[3]      packing[44]  29
    x[3]      packing[45]  155
    x[3]      packing[48]  144
    x[3]      packing[49]  128
    x[4]      OBJ       144
    x[4]      packing[0]  161
    x[4]      packing[1]  19
    x[4]      packing[2]  57
    x[4]      packing[3]  101
    x[4]      packing[5]  62
    x[4]      packing[7]  38
    x[4]      packing[8]  140
    x[4]      packing[10]  111
    x[4]      packing[11]  151
    x[4]      packing[12]  94
    x[4]      packing[13]  83
    x[4]      packing[15]  167
    x[4]      packing[17]  29
    x[4]      packing[18]  49
    x[4]      packing[19]  178
    x[4]      packing[20]  152
    x[4]      packing[21]  47
    x[4]      packing[22]  98
    x[4]      packing[23]  166
    x[4]      packing[24]  43
    x[4]      packing[25]  37
    x[4]      packing[26]  192
    x[4]      packing[29]  49
    x[4]      packing[32]  120
    x[4]      packing[33]  177
    x[4]      packing[35]  147
    x[4]      packing[36]  107
    x[4]      packing[37]  190
    x[4]      packing[38]  79
    x[4]      packing[39]  136
    x[4]      packing[40]  141
    x[4]      packing[41]  80
    x[4]      packing[43]  57
    x[4]      packing[44]  130
    x[4]      packing[46]  72
    x[4]      packing[47]  142
    x[4]      packing[49]  83
    x[5]      OBJ       104
    x[5]      packing[0]  137
    x[5]      packing[1]  22
    x[5]      packing[2]  104
    x[5]      packing[3]  21
    x[5]      packing[5]  11
    x[5]      packing[6]  130
    x[5]      packing[7]  130
    x[5]      packing[8]  137
    x[5]      packing[9]  90
    x[5]      packing[10]  52
    x[5]      packing[11]  150
    x[5]      packing[12]  16
    x[5]      packing[13]  111
    x[5]      packing[14]  187
    x[5]      packing[15]  48
    x[5]      packing[17]  109
    x[5]      packing[18]  26
    x[5]      packing[19]  86
    x[5]      packing[20]  147
    x[5]      packing[22]  28
    x[5]      packing[23]  9
    x[5]      packing[25]  78
    x[5]      packing[26]  38
    x[5]      packing[28]  90
    x[5]      packing[29]  172
    x[5]      packing[30]  196
    x[5]      packing[31]  185
    x[5]      packing[32]  44
    x[5]      packing[35]  108
    x[5]      packing[36]  9
    x[5]      packing[37]  137
    x[5]      packing[40]  76
    x[5]      packing[41]  61
    x[5]      packing[42]  22
    x[5]      packing[43]  123
    x[5]      packing[44]  132
    x[5]      packing[45]  34
    x[5]      packing[46]  30
    x[5]      packing[47]  125
    x[5]      packing[49]  45
    x[6]      OBJ       12
    x[6]      packing[0]  112
    x[6]      packing[1]  67
    x[6]      packing[2]  79
    x[6]      packing[3]  49
    x[6]      packing[4]  182
    x[6]      packing[7]  13
    x[6]      packing[8]  83
    x[6]      packing[11]  117
    x[6]      packing[13]  90
    x[6]      packing[14]  134
    x[6]      packing[15]  12
    x[6]      packing[16]  167
    x[6]      packing[17]  159
    x[6]      packing[18]  97
    x[6]      packing[20]  146
    x[6]      packing[21]  99
    x[6]      packing[23]  8
    x[6]      packing[24]  15
    x[6]      packing[25]  13
    x[6]      packing[28]  170
    x[6]      packing[29]  69
    x[6]      packing[31]  139
    x[6]      packing[32]  190
    x[6]      packing[33]  44
    x[6]      packing[34]  8
    x[6]      packing[35]  115
    x[6]      packing[36]  7
    x[6]      packing[37]  184
    x[6]      packing[38]  108
    x[6]      packing[40]  185
    x[6]      packing[41]  120
    x[6]      packing[42]  14
    x[6]      packing[43]  189
    x[6]      packing[44]  22
    x[6]      packing[45]  15
    x[6]      packing[46]  150
    x[6]      packing[47]  1
    x[7]      OBJ       109
    x[7]      packing[1]  87
    x[7]      packing[2]  10
    x[7]      packing[3]  160
    x[7]      packing[7]  40
    x[7]      packing[8]  68
    x[7]      packing[9]  131
    x[7]      packing[10]  110
    x[7]      packing[11]  63
    x[7]      packing[13]  3
    x[7]      packing[15]  83
    x[7]      packing[16]  97
    x[7]      packing[17]  74
    x[7]      packing[18]  114
    x[7]      packing[20]  29
    x[7]      packing[21]  94
    x[7]      packing[22]  45
    x[7]      packing[23]  79
    x[7]      packing[24]  91
    x[7]      packing[27]  23
    x[7]      packing[29]  157
    x[7]      packing[30]  136
    x[7]      packing[31]  93
    x[7]      packing[32]  163
    x[7]      packing[34]  97
    x[7]      packing[36]  97
    x[7]      packing[38]  27
    x[7]      packing[39]  55
    x[7]      packing[40]  12
    x[7]      packing[41]  135
    x[7]      packing[42]  108
    x[7]      packing[43]  11
    x[7]      packing[44]  4
    x[7]      packing[46]  182
    x[7]      packing[47]  95
    x[7]      packing[49]  188
    x[7]      R50       1
    x[8]      OBJ       70
    x[8]      packing[0]  115
    x[8]      packing[1]  154
    x[8]      packing[2]  127
    x[8]      packing[3]  62
    x[8]      packing[4]  46
    x[8]      packing[5]  28
    x[8]      packing[7]  104
    x[8]      packing[8]  50
    x[8]      packing[9]  15
    x[8]      packing[10]  118
    x[8]      packing[11]  94
    x[8]      packing[13]  145
    x[8]      packing[14]  53
    x[8]      packing[15]  20
    x[8]      packing[16]  199
    x[8]      packing[18]  152
    x[8]      packing[19]  102
    x[8]      packing[20]  81
    x[8]      packing[21]  19
    x[8]      packing[22]  114
    x[8]      packing[25]  142
    x[8]      packing[26]  122
    x[8]      packing[27]  47
    x[8]      packing[28]  149
    x[8]      packing[29]  3
    x[8]      packing[30]  145
    x[8]      packing[31]  1
    x[8]      packing[32]  188
    x[8]      packing[33]  132
    x[8]      packing[34]  89
    x[8]      packing[35]  175
    x[8]      packing[36]  105
    x[8]      packing[38]  171
    x[8]      packing[39]  149
    x[8]      packing[42]  145
    x[8]      packing[43]  41
    x[8]      packing[45]  36
    x[8]      packing[47]  129
    x[8]      packing[48]  95
    x[8]      packing[49]  105
    x[8]      R50       1
    x[9]      OBJ       108
    x[9]      packing[0]  142
    x[9]      packing[1]  142
    x[9]      packing[2]  74
    x[9]      packing[3]  46
    x[9]      packing[4]  16
    x[9]      packing[5]  87
    x[9]      packing[7]  19
    x[9]      packing[8]  119
    x[9]      packing[9]  17
    x[9]      packing[10]  178
    x[9]      packing[11]  147
    x[9]      packing[14]  75
    x[9]      packing[16]  7
    x[9]      packing[17]  191
    x[9]      packing[18]  18
    x[9]      packing[19]  186
    x[9]      packing[20]  22
    x[9]      packing[21]  159
    x[9]      packing[22]  29
    x[9]      packing[23]  5
    x[9]      packing[25]  114
    x[9]      packing[26]  23
    x[9]      packing[27]  159
    x[9]      packing[28]  199
    x[9]      packing[29]  85
    x[9]      packing[30]  198
    x[9]      packing[31]  78
    x[9]      packing[32]  91
    x[9]      packing[33]  139
    x[9]      packing[34]  12
    x[9]      packing[35]  81
    x[9]      packing[36]  70
    x[9]      packing[37]  117
    x[9]      packing[38]  33
    x[9]      packing[40]  188
    x[9]      packing[41]  134
    x[9]      packing[44]  65
    x[9]      packing[45]  19
    x[9]      packing[46]  103
    x[9]      packing[49]  119
    x[9]      R50       1
    x[10]     OBJ       114
    x[10]     packing[0]  67
    x[10]     packing[1]  143
    x[10]     packing[3]  30
    x[10]     packing[6]  92
    x[10]     packing[7]  2
    x[10]     packing[8]  144
    x[10]     packing[9]  45
    x[10]     packing[11]  11
    x[10]     packing[12]  121
    x[10]     packing[13]  143
    x[10]     packing[14]  36
    x[10]     packing[16]  173
    x[10]     packing[17]  136
    x[10]     packing[18]  10
    x[10]     packing[20]  22
    x[10]     packing[21]  31
    x[10]     packing[22]  93
    x[10]     packing[23]  130
    x[10]     packing[24]  148
    x[10]     packing[25]  162
    x[10]     packing[26]  116
    x[10]     packing[28]  155
    x[10]     packing[30]  100
    x[10]     packing[32]  134
    x[10]     packing[34]  75
    x[10]     packing[35]  122
    x[10]     packing[36]  8
    x[10]     packing[37]  67
    x[10]     packing[38]  67
    x[10]     packing[40]  168
    x[10]     packing[41]  152
    x[10]     packing[42]  174
    x[10]     packing[43]  92
    x[10]     packing[44]  108
    x[10]     packing[45]  101
    x[10]     packing[46]  70
    x[10]     packing[47]  158
    x[10]     packing[48]  61
    x[10]     packing[49]  67
    x[10]     R50       1
    x[11]     OBJ       182
    x[11]     packing[0]  3
    x[11]     packing[2]  146
    x[11]     packing[3]  197
    x[11]     packing[4]  138
    x[11]     packing[5]  148
    x[11]     packing[6]  29
    x[11]     packing[7]  8
    x[11]     packing[8]  9
    x[11]     packing[9]  150
    x[11]     packing[10]  112
    x[11]     packing[11]  128
    x[11]     packing[12]  71
    x[11]     packing[13]  181
    x[11]     packing[14]  171
    x[11]     packing[15]  33
    x[11]     packing[16]  177
    x[11]     packing[17]  13
    x[11]     packing[19]  175
    x[11]     packing[20]  48
    x[11]     packing[21]  167
    x[11]     packing[24]  37
    x[11]     packing[26]  56
    x[11]     packing[27]  55
    x[11]     packing[29]  114
    x[11]     packing[31]  25
    x[11]     packing[32]  153
    x[11]     packing[33]  5
    x[11]     packing[35]  10
    x[11]     packing[37]  125
    x[11]     packing[38]  5
    x[11]     packing[39]  52
    x[11]     packing[40]  77
    x[11]     packing[41]  10
    x[11]     packing[42]  164
    x[11]     packing[43]  10
    x[11]     packing[44]  91
    x[11]     packing[45]  131
    x[11]     packing[46]  49
    x[11]     packing[47]  195
    x[11]     packing[48]  47
    x[12]     OBJ       37
    x[12]     packing[0]  128
    x[12]     packing[1]  56
    x[12]     packing[2]  140
    x[12]     packing[3]  54
    x[12]     packing[4]  38
    x[12]     packing[6]  138
    x[12]     packing[7]  165
    x[12]     packing[10]  26
    x[12]     packing[11]  89
    x[12]     packing[12]  68
    x[12]     packing[14]  168
    x[12]     packing[15]  118
    x[12]     packing[16]  56
    x[12]     packing[17]  141
    x[12]     packing[20]  78
    x[12]     packing[21]  155
    x[12]     packing[23]  64
    x[12]     packing[25]  159
    x[12]     packing[26]  167
    x[12]     packing[27]  36
    x[12]     packing[30]  154
    x[12]     packing[31]  175
    x[12]     packing[32]  60
    x[12]     packing[33]  195
    x[12]     packing[34]  172
    x[12]     packing[35]  75
    x[12]     packing[38]  84
    x[12]     packing[39]  16
    x[12]     packing[40]  178
    x[12]     packing[41]  194
    x[12]     packing[42]  179
    x[12]     packing[45]  51
    x[12]     packing[46]  178
    x[12]     packing[47]  153
    x[12]     packing[49]  119
    x[13]     OBJ       52
    x[13]     packing[0]  102
    x[13]     packing[1]  144
    x[13]     packing[3]  135
    x[13]     packing[4]  152
    x[13]     packing[5]  131
    x[13]     packing[8]  25
    x[13]     packing[9]  124
    x[13]     packing[10]  179
    x[13]     packing[11]  172
    x[13]     packing[12]  190
    x[13]     packing[13]  60
    x[13]     packing[14]  139
    x[13]     packing[15]  163
    x[13]     packing[16]  147
    x[13]     packing[18]  31
    x[13]     packing[20]  124
    x[13]     packing[21]  125
    x[13]     packing[22]  49
    x[13]     packing[25]  137
    x[13]     packing[26]  189
    x[13]     packing[28]  72
    x[13]     packing[30]  69
    x[13]     packing[31]  11
    x[13]     packing[33]  42
    x[13]     packing[34]  189
    x[13]     packing[35]  83
    x[13]     packing[36]  87
    x[13]     packing[38]  127
    x[13]     packing[40]  142
    x[13]     packing[41]  46
    x[13]     packing[42]  55
    x[13]     packing[43]  81
    x[13]     packing[44]  44
    x[13]     packing[45]  153
    x[13]     packing[46]  108
    x[13]     packing[47]  195
    x[13]     packing[48]  76
    x[13]     packing[49]  197
    x[14]     OBJ       95
    x[14]     packing[1]  11
    x[14]     packing[3]  135
    x[14]     packing[4]  171
    x[14]     packing[5]  55
    x[14]     packing[6]  110
    x[14]     packing[7]  68
    x[14]     packing[10]  181
    x[14]     packing[12]  175
    x[14]     packing[13]  52
    x[14]     packing[14]  144
    x[14]     packing[15]  51
    x[14]     packing[17]  175
    x[14]     packing[18]  38
    x[14]     packing[19]  8
    x[14]     packing[20]  103
    x[14]     packing[21]  26
    x[14]     packing[22]  130
    x[14]     packing[23]  139
    x[14]     packing[26]  92
    x[14]     packing[27]  40
    x[14]     packing[28]  5
    x[14]     packing[29]  22
    x[14]     packing[31]  23
    x[14]     packing[32]  65
    x[14]     packing[33]  134
    x[14]     packing[34]  88
    x[14]     packing[38]  146
    x[14]     packing[40]  112
    x[14]     packing[41]  150
    x[14]     packing[42]  23
    x[14]     packing[43]  145
    x[14]     packing[44]  91
    x[14]     packing[45]  62
    x[14]     packing[47]  51
    x[14]     packing[49]  63
    x[14]     R50       1
    x[15]     OBJ       152
    x[15]     packing[0]  176
    x[15]     packing[3]  86
    x[15]     packing[4]  110
    x[15]     packing[5]  56
    x[15]     packing[7]  137
    x[15]     packing[8]  28
    x[15]     packing[9]  54
    x[15]     packing[11]  187
    x[15]     packing[12]  11
    x[15]     packing[14]  100
    x[15]     packing[15]  199
    x[15]     packing[16]  176
    x[15]     packing[17]  21
    x[15]     packing[18]  184
    x[15]     packing[19]  147
    x[15]     packing[20]  98
    x[15]     packing[22]  10
    x[15]     packing[23]  138
    x[15]     packing[24]  66
    x[15]     packing[25]  110
    x[15]     packing[27]  9
    x[15]     packing[28]  14
    x[15]     packing[30]  44
    x[15]     packing[31]  186
    x[15]     packing[32]  160
    x[15]     packing[33]  135
    x[15]     packing[35]  109
    x[15]     packing[36]  154
    x[15]     packing[37]  170
    x[15]     packing[38]  26
    x[15]     packing[42]  18
    x[15]     packing[43]  47
    x[15]     packing[44]  166
    x[15]     packing[45]  40
    x[15]     packing[46]  118
    x[15]     packing[47]  107
    x[15]     packing[48]  21
    x[15]     packing[49]  166
    x[16]     OBJ       198
    x[16]     packing[0]  160
    x[16]     packing[1]  54
    x[16]     packing[2]  108
    x[16]     packing[3]  116
    x[16]     packing[4]  168
    x[16]     packing[5]  103
    x[16]     packing[6]  88
    x[16]     packing[7]  33
    x[16]     packing[8]  9
    x[16]     packing[9]  33
    x[16]     packing[11]  175
    x[16]     packing[12]  95
    x[16]     packing[14]  120
    x[16]     packing[15]  134
    x[16]     packing[16]  187
    x[16]     packing[18]  70
    x[16]     packing[19]  150
    x[16]     packing[20]  26
    x[16]     packing[21]  51
    x[16]     packing[25]  182
    x[16]     packing[27]  161
    x[16]     packing[28]  141
    x[16]     packing[29]  35
    x[16]     packing[30]  109
    x[16]     packing[31]  136
    x[16]     packing[32]  162
    x[16]     packing[33]  55
    x[16]     packing[35]  35
    x[16]     packing[37]  45
    x[16]     packing[38]  91
    x[16]     packing[39]  194
    x[16]     packing[40]  38
    x[16]     packing[41]  36
    x[16]     packing[42]  102
    x[16]     packing[43]  193
    x[16]     packing[44]  124
    x[16]     packing[45]  56
    x[16]     packing[46]  75
    x[16]     packing[48]  190
    x[16]     packing[49]  136
    x[16]     R50       1
    x[17]     OBJ       40
    x[17]     packing[0]  87
    x[17]     packing[2]  9
    x[17]     packing[3]  163
    x[17]     packing[4]  100
    x[17]     packing[5]  55
    x[17]     packing[8]  179
    x[17]     packing[10]  45
    x[17]     packing[11]  198
    x[17]     packing[13]  165
    x[17]     packing[14]  189
    x[17]     packing[15]  110
    x[17]     packing[16]  130
    x[17]     packing[18]  9
    x[17]     packing[19]  109
    x[17]     packing[23]  65
    x[17]     packing[25]  32
    x[17]     packing[26]  20
    x[17]     packing[27]  73
    x[17]     packing[28]  83
    x[17]     packing[30]  53
    x[17]     packing[31]  197
    x[17]     packing[32]  9
    x[17]     packing[34]  4
    x[17]     packing[35]  102
    x[17]     packing[36]  91
    x[17]     packing[37]  32
    x[17]     packing[38]  103
    x[17]     packing[39]  117
    x[17]     packing[40]  178
    x[17]     packing[41]  51
    x[17]     packing[42]  171
    x[17]     packing[45]  9
    x[17]     packing[46]  172
    x[17]     packing[47]  109
    x[17]     packing[48]  53
    x[17]     packing[49]  119
    x[18]     OBJ       25
    x[18]     packing[0]  21
    x[18]     packing[2]  160
    x[18]     packing[3]  45
    x[18]     packing[4]  50
    x[18]     packing[6]  17
    x[18]     packing[7]  39
    x[18]     packing[8]  120
    x[18]     packing[10]  141
    x[18]     packing[11]  151
    x[18]     packing[12]  196
    x[18]     packing[14]  123
    x[18]     packing[15]  3
    x[18]     packing[16]  162
    x[18]     packing[17]  65
    x[18]     packing[18]  45
    x[18]     packing[19]  105
    x[18]     packing[20]  20
    x[18]     packing[21]  139
    x[18]     packing[22]  37
    x[18]     packing[23]  118
    x[18]     packing[25]  114
    x[18]     packing[26]  22
    x[18]     packing[27]  10
    x[18]     packing[29]  142
    x[18]     packing[30]  170
    x[18]     packing[31]  191
    x[18]     packing[32]  138
    x[18]     packing[33]  63
    x[18]     packing[34]  37
    x[18]     packing[35]  43
    x[18]     packing[36]  32
    x[18]     packing[37]  149
    x[18]     packing[39]  83
    x[18]     packing[40]  115
    x[18]     packing[41]  177
    x[18]     packing[42]  100
    x[18]     packing[43]  119
    x[18]     packing[44]  29
    x[18]     packing[45]  15
    x[18]     packing[46]  10
    x[18]     packing[48]  150
    x[18]     packing[49]  166
    x[19]     OBJ       54
    x[19]     packing[0]  36
    x[19]     packing[1]  189
    x[19]     packing[2]  137
    x[19]     packing[3]  179
    x[19]     packing[4]  140
    x[19]     packing[5]  109
    x[19]     packing[6]  45
    x[19]     packing[7]  17
    x[19]     packing[8]  87
    x[19]     packing[9]  129
    x[19]     packing[10]  142
    x[19]     packing[13]  47
    x[19]     packing[15]  109
    x[19]     packing[16]  41
    x[19]     packing[17]  63
    x[19]     packing[18]  180
    x[19]     packing[19]  154
    x[19]     packing[20]  39
    x[19]     packing[21]  115
    x[19]     packing[22]  80
    x[19]     packing[24]  116
    x[19]     packing[25]  12
    x[19]     packing[26]  15
    x[19]     packing[27]  158
    x[19]     packing[28]  187
    x[19]     packing[30]  40
    x[19]     packing[31]  124
    x[19]     packing[32]  143
    x[19]     packing[33]  94
    x[19]     packing[34]  155
    x[19]     packing[36]  102
    x[19]     packing[37]  42
    x[19]     packing[38]  79
    x[19]     packing[39]  39
    x[19]     packing[41]  16
    x[19]     packing[42]  113
    x[19]     packing[43]  67
    x[19]     packing[44]  135
    x[19]     packing[45]  191
    x[19]     packing[46]  32
    x[19]     packing[47]  68
    x[19]     packing[48]  119
    x[20]     OBJ       148
    x[20]     packing[0]  88
    x[20]     packing[1]  176
    x[20]     packing[2]  33
    x[20]     packing[3]  197
    x[20]     packing[4]  159
    x[20]     packing[5]  68
    x[20]     packing[6]  192
    x[20]     packing[7]  11
    x[20]     packing[8]  10
    x[20]     packing[9]  194
    x[20]     packing[11]  75
    x[20]     packing[12]  99
    x[20]     packing[13]  153
    x[20]     packing[14]  165
    x[20]     packing[15]  121
    x[20]     packing[17]  37
    x[20]     packing[19]  18
    x[20]     packing[20]  171
    x[20]     packing[21]  92
    x[20]     packing[23]  15
    x[20]     packing[25]  30
    x[20]     packing[27]  136
    x[20]     packing[28]  167
    x[20]     packing[29]  69
    x[20]     packing[30]  156
    x[20]     packing[31]  10
    x[20]     packing[32]  74
    x[20]     packing[34]  4
    x[20]     packing[35]  155
    x[20]     packing[36]  173
    x[20]     packing[37]  184
    x[20]     packing[38]  151
    x[20]     packing[40]  108
    x[20]     packing[41]  123
    x[20]     packing[42]  109
    x[20]     packing[43]  54
    x[20]     packing[44]  89
    x[20]     packing[45]  81
    x[20]     packing[46]  106
    x[20]     packing[47]  31
    x[20]     packing[49]  28
    x[20]     R50       1
    MARKER    'MARKER'                 'INTEND'
RHS
    RHS1      packing[0]  909
    RHS1      packing[1]  700
    RHS1      packing[2]  747
    RHS1      packing[3]  1050
    RHS1      packing[4]  841
    RHS1      packing[5]  642
    RHS1      packing[6]  624
    RHS1      packing[7]  533
    RHS1      packing[8]  623
    RHS1      packing[9]  643
    RHS1      packing[10]  922
    RHS1      packing[11]  1088
    RHS1      packing[12]  637
    RHS1      packing[13]  733
    RHS1      packing[14]  1011
    RHS1      packing[15]  689
    RHS1      packing[16]  972
    RHS1      packing[17]  642
    RHS1      packing[18]  620
    RHS1      packing[19]  791
    RHS1      packing[20]  803
    RHS1      packing[21]  883
    RHS1      packing[22]  572
    RHS1      packing[23]  489
    RHS1      packing[24]  468
    RHS1      packing[25]  764
    RHS1      packing[26]  632
    RHS1      packing[27]  685
    RHS1      packing[28]  786
    RHS1      packing[29]  606
    RHS1      packing[30]  848
    RHS1      packing[31]  968
    RHS1      packing[32]  1080
    RHS1      packing[33]  699
    RHS1      packing[34]  581
    RHS1      packing[35]  741
    RHS1      packing[36]  679
    RHS1      packing[37]  862
    RHS1      packing[38]  684
    RHS1      packing[39]  528
    RHS1      packing[40]  953
    RHS1      packing[41]  743
    RHS1      packing[42]  816
    RHS1      packing[43]  782
    RHS1      packing[44]  765
    RHS1      packing[45]  739
    RHS1      packing[46]  749
    RHS1      packing[47]  892
    RHS1      packing[48]  661
    RHS1      packing[49]  949
    RHS1      R50       6
BOUNDS
 BV BND1      x[1]    
 BV BND1      x[2]    
 BV BND1      x[3]    
 BV BND1      x[4]    
 BV BND1      x[5]    
 BV BND1      x[6]    
 BV BND1      x[7]    
 BV BND1      x[8]    
 BV BND1      x[9]    
 BV BND1      x[10]   
 BV BND1      x[11]   
 BV BND1      x[12]   
 BV BND1      x[13]   
 BV BND1      x[14]   
 BV BND1      x[15]   
 BV BND1      x[16]   
 BV BND1      x[17]   
 BV BND1      x[18]   
 BV BND1      x[19]   
 BV BND1      x[20]   
ENDATA
